letting n_nurses=25
letting n_days=7
letting n_shift_types=4
letting max_covers=9
letting t_covers=61
letting covers=[1,0,0,0,7,9,4,0,3,6,3,0,3,4,8,0,6,5,2,0,0,0,0,0,0,0,0,0]
letting prefes=[1,4,1,1,4,4,1,2,1,4,2,2,1,4,2,2,1,4,2,2,4,4,1,2,1,4,2,2,1,1,1,1,4,4,2,1,1,1,1,2,1,1,1,2,1,1,1,2,4,4,2,1,1,1,1,2,1,4,3,1,4,1,1,2,4,4,2,2,4,4,2,2,4,4,2,2,4,1,1,2,4,4,2,2,1,4,3,1,4,4,2,2,1,4,2,2,1,4,2,2,1,4,2,2,4,4,2,2,1,4,2,2,1,4,3,1,2,1,2,2,1,4,2,2,1,4,2,2,1,4,2,2,2,1,2,2,1,4,2,2,2,4,3,2,2,4,2,2,1,1,1,1,1,1,1,1,1,1,1,1,2,4,2,2,1,1,1,1,1,4,3,1,2,4,2,2,1,4,2,2,1,4,2,2,1,4,2,2,2,4,2,2,1,4,2,2,1,4,1,1,4,4,2,1,1,4,2,1,1,4,2,1,1,4,2,1,4,4,2,1,1,4,2,1,2,4,3,2,4,4,2,2,4,4,2,2,4,4,2,2,4,4,2,2,4,4,2,2,4,4,2,2,1,4,3,1,4,1,2,2,1,4,2,1,1,4,2,1,1,4,2,1,4,1,2,2,1,4,2,1,2,4,3,2,2,4,2,1,1,4,2,2,1,4,2,2,1,4,2,2,2,4,2,1,1,4,2,2,1,4,3,1,4,4,2,2,1,4,2,2,1,4,2,2,1,4,2,2,4,4,2,2,1,4,2,2,3,4,3,3,4,4,2,2,1,4,2,2,1,4,2,2,1,4,2,2,4,4,2,2,1,4,2,2,1,1,3,1,2,4,2,2,1,4,1,2,1,4,1,2,1,4,1,2,2,4,2,2,1,4,1,2,1,4,3,1,4,1,2,2,1,4,2,2,1,4,2,2,1,4,2,2,4,1,2,2,1,4,2,2,1,4,1,1,4,4,1,2,1,4,2,2,1,4,2,2,1,4,2,2,4,4,1,2,1,4,2,2,1,1,3,1,4,4,2,1,1,1,1,1,1,1,1,1,1,1,1,1,4,4,2,1,1,1,1,1,1,1,3,1,4,4,2,2,4,4,2,2,4,4,2,2,4,4,2,2,4,4,2,2,4,4,2,2,1,1,3,1,4,4,2,2,1,1,2,2,1,1,2,2,1,1,2,2,4,4,2,2,1,1,2,2,2,4,3,2,4,4,2,1,4,4,2,2,4,4,2,2,4,4,2,2,4,4,2,1,4,4,2,2,1,4,3,1,4,4,1,2,1,1,2,2,1,1,2,2,1,1,2,2,4,4,1,2,1,1,2,2,1,4,1,1,4,4,2,2,1,4,1,2,1,4,1,2,1,4,1,2,4,4,2,2,1,4,1,2,1,4,3,1,4,4,2,2,1,4,2,1,1,4,2,1,1,4,2,1,4,4,2,2,1,4,2,1,1,4,3,1,4,1,2,2,4,4,2,2,4,4,2,2,4,4,2,2,4,1,2,2,4,4,2,2,1,4,3,1,4,4,1,2,1,4,2,2,1,4,2,2,1,4,2,2,4,4,1,2,1,4,2,2]
letting ub =  246
